(set-logic LIA)
(synth-fun next ((brake Int) (distance Int) (speed Int) (throttle Int) (ignition Bool) (time Int) ) Int
	((Start Int) (Var Int) (StartBool Bool))
	((Start Int (
				 1
				 3
				 5
				 (ite StartBool Start Start)))

	(Var Int (
			 0
			 1
			 2
			 3
			 5
			 447
			 739
			 brake
			 distance
			 speed
			 throttle
			 time
			 (+ Var Var)						
			 (- Var Var)						
			 (* Var Var)))

	(StartBool Bool (
				 	 ignition
					(= Var Var)						
					(>= Var Var)						
					(<= Var Var)						
					(and StartBool StartBool)			
					(or  StartBool StartBool)				
					(not StartBool)))))

(constraint (= (next 0 0 2 5 true 609 ) 1))
(constraint (= (next 0 0 5 4 true 1237 ) 5))
(constraint (= (next 0 1 1 5 true 372 ) 3))

(check-synth)
